(set-logic QF_BV)
(declare-fun _substvar_221_ () (_ BitVec 64))
(declare-fun _substvar_267_ () (_ BitVec 64))
(declare-fun _substvar_318_ () (_ BitVec 64))
(assert (= false (bvsle _substvar_221_ (_ bv0 64))))
(assert (= _substvar_318_ (bvsub (_ bv0 64) _substvar_221_)))
(assert (= (_ bv0 64) (bvudiv _substvar_318_ _substvar_267_)))
(check-sat)
(exit)
